NAME          
ROWS
 N  OBJ
 L  c1
COLUMNS
    MARKER    'MARKER'                 'INTORG'
    x[1]      c1        307
    x[1]      OBJ       -234
    x[2]      c1        418
    x[2]      OBJ       -420
    x[3]      c1        814
    x[3]      OBJ       -790
    x[4]      c1        747
    x[4]      OBJ       -676
    x[5]      c1        872
    x[5]      OBJ       -933
    x[6]      c1        686
    x[6]      OBJ       -603
    x[7]      c1        626
    x[7]      OBJ       -570
    x[8]      c1        190
    x[8]      OBJ       -105
    x[9]      c1        265
    x[9]      OBJ       -220
    x[10]     c1        551
    x[10]     OBJ       -589
    x[11]     c1        -27
    x[11]     OBJ       -25
    x[12]     c1        64
    x[12]     OBJ       -15
    x[13]     c1        377
    x[13]     OBJ       -418
    x[14]     c1        838
    x[14]     OBJ       -931
    x[15]     c1        554
    x[15]     OBJ       -637
    x[16]     c1        111
    x[16]     OBJ       -50
    x[17]     c1        -51
    x[17]     OBJ       -45
    x[18]     c1        -6
    x[18]     OBJ       -81
    x[19]     c1        825
    x[19]     OBJ       -828
    x[20]     c1        206
    x[20]     OBJ       -125
RHS
    rhs       c1        4184
RANGES
BOUNDS
 BV bounds    x[1]
 BV bounds    x[2]
 BV bounds    x[3]
 BV bounds    x[4]
 BV bounds    x[5]
 BV bounds    x[6]
 BV bounds    x[7]
 BV bounds    x[8]
 BV bounds    x[9]
 BV bounds    x[10]
 BV bounds    x[11]
 BV bounds    x[12]
 BV bounds    x[13]
 BV bounds    x[14]
 BV bounds    x[15]
 BV bounds    x[16]
 BV bounds    x[17]
 BV bounds    x[18]
 BV bounds    x[19]
 BV bounds    x[20]
ENDATA
